c This Formular is generated by mcnf
c
c    horn? no 
c    forced? no 
c    mixed sat? no 
c    clause length = 3 
c
p cnf 20  91 
 12 -4 17 0
9 5 14 0
11 1 -2 0
8 -12 5 0
15 20 -18 0
5 15 -19 0
-1 -12 -3 0
-17 -4 -11 0
-10 18 4 0
-18 15 1 0
10 9 19 0
6 11 14 0
19 -2 -10 0
1 9 -18 0
6 -1 -13 0
10 -5 -6 0
10 19 5 0
-10 -5 11 0
-18 -15 19 0
14 -5 -3 0
3 1 -2 0
2 19 -13 0
16 11 -4 0
-17 7 -12 0
-17 16 15 0
-17 -4 -6 0
-13 -12 6 0
-14 -6 9 0
-16 1 18 0
7 -18 2 0
3 -2 12 0
-14 5 -19 0
-4 -16 -18 0
-18 11 -13 0
3 -9 -14 0
11 -17 14 0
9 -11 -7 0
12 9 17 0
-2 -15 -1 0
20 -4 9 0
-14 15 17 0
%
0

83 84 73 95 6 22 97 3 90 69 17 100 6 94 70 11 22 26 9 40
